NAME : XML50_2173_02
COMMENT : Generated as the XML100 dataset from the CVRPLIB
TYPE : CVRP
DIMENSION : 51
EDGE_WEIGHT_TYPE : EUC_2D
CAPACITY : 124
NODE_COORD_SECTION
1    500  500 
2    870  590 
3    1    687 
4    262  762 
5    641  90  
6    435  473 
7    451  164 
8    255  76  
9    960  337 
10   656  844 
11   799  32  
12   666  195 
13   304  828 
14   339  828 
15   807  271 
16   684  527 
17   627  713 
18   386  113 
19   814  295 
20   834  154 
21   134  307 
22   690  524 
23   732  826 
24   290  880 
25   665  876 
26   122  896 
27   734  753 
28   916  909 
29   911  837 
30   930  911 
31   929  64  
32   988  992 
33   589  322 
34   430  463 
35   817  152 
36   860  367 
37   39   269 
38   289  191 
39   805  550 
40   1    44  
41   938  646 
42   267  118 
43   202  107 
44   225  841 
45   652  536 
46   215  144 
47   573  401 
48   371  477 
49   329  233 
50   972  156 
51   778  931 
DEMAND_SECTION
1    0   
2    2   
3    3   
4    74  
5    3   
6    54  
7    4   
8    9   
9    9   
10   2   
11   76  
12   3   
13   10  
14   5   
15   4   
16   3   
17   3   
18   68  
19   1   
20   9   
21   1   
22   4   
23   8   
24   6   
25   8   
26   6   
27   2   
28   9   
29   6   
30   6   
31   2   
32   7   
33   1   
34   59  
35   3   
36   2   
37   8   
38   7   
39   6   
40   8   
41   6   
42   1   
43   9   
44   4   
45   4   
46   5   
47   7   
48   4   
49   8   
50   72  
51   91  
DEPOT_SECTION
1
-1
EOF
